NAME : fnb1615
COMMENT : Bonn VLSI data set with 1615 points
COMMENT : Uni Bonn, Research Institute for Discrete Math
COMMENT : Contributed by Andre Rohe
TYPE : TSP
DIMENSION : 1615
EDGE_WEIGHT_TYPE : EUC_2D
NODE_COORD_SECTION
1 0 110
2 0 45
3 0 66
4 0 89
5 2 118
6 2 120
7 2 13
8 2 15
9 2 67
10 2 69
11 2 71
12 2 73
13 2 75
14 2 77
15 2 79
16 2 81
17 5 103
18 5 111
19 5 118
20 5 120
21 5 122
22 5 126
23 5 21
24 5 29
25 5 37
26 5 45
27 5 53
28 5 61
29 5 68
30 5 72
31 5 76
32 5 8
33 5 80
34 5 87
35 5 95
36 8 105
37 8 113
38 8 17
39 8 23
40 8 31
41 8 39
42 8 47
43 8 55
44 8 63
45 8 83
46 8 89
47 8 97
48 9 105
49 9 113
50 9 17
51 9 23
52 9 31
53 9 39
54 9 47
55 9 55
56 9 63
57 9 66
58 9 83
59 9 89
60 9 97
61 10 105
62 10 113
63 10 117
64 10 17
65 10 23
66 10 31
67 10 39
68 10 47
69 10 55
70 10 63
71 10 66
72 10 83
73 10 89
74 10 97
75 11 106
76 11 114
77 11 117
78 11 17
79 11 24
80 11 32
81 11 40
82 11 48
83 11 56
84 11 64
85 11 66
86 11 83
87 11 9
88 11 90
89 11 98
90 12 123
91 12 17
92 12 5
93 12 83
94 15 118
95 15 120
96 15 122
97 15 126
98 15 8
99 18 100
100 18 101
101 18 103
102 18 105
103 18 109
104 18 111
105 18 113
106 18 19
107 18 21
108 18 23
109 18 27
110 18 29
111 18 31
112 18 35
113 18 37
114 18 39
115 18 43
116 18 45
117 18 47
118 18 51
119 18 53
120 18 55
121 18 59
122 18 61
123 18 63
124 18 84
125 18 85
126 18 87
127 18 89
128 18 92
129 18 93
130 18 95
131 18 97
132 25 100
133 25 102
134 25 104
135 25 106
136 25 108
137 25 110
138 25 112
139 25 114
140 25 116
141 25 118
142 25 121
143 25 126
144 25 48
145 25 50
146 25 52
147 25 54
148 25 56
149 25 58
150 25 60
151 25 62
152 25 65
153 25 96
154 25 98
155 28 101
156 28 105
157 28 109
158 28 113
159 28 117
160 28 121
161 28 123
162 28 13
163 28 19
164 28 25
165 28 31
166 28 37
167 28 43
168 28 49
169 28 53
170 28 57
171 28 61
172 28 65
173 28 7
174 28 70
175 28 78
176 28 86
177 28 94
178 28 97
179 31 0
180 31 66
181 31 72
182 31 80
183 31 88
184 32 0
185 32 10
186 32 47
187 32 66
188 32 72
189 32 80
190 32 88
191 32 95
192 33 0
193 33 10
194 33 132
195 33 47
196 33 66
197 33 72
198 33 80
199 33 88
200 33 95
201 34 0
202 34 10
203 34 122
204 34 132
205 34 47
206 34 5
207 34 66
208 34 73
209 34 81
210 34 89
211 34 95
212 35 0
213 35 10
214 35 132
215 35 66
216 38 123
217 38 13
218 38 19
219 38 25
220 38 31
221 38 37
222 38 43
223 40 126
224 41 11
225 41 13
226 41 15
227 41 17
228 41 19
229 41 21
230 41 23
231 41 25
232 41 27
233 41 29
234 41 31
235 41 33
236 41 35
237 41 37
238 41 39
239 41 41
240 41 42
241 41 44
242 41 45
243 41 68
244 41 70
245 41 72
246 41 76
247 41 78
248 41 80
249 41 83
250 41 84
251 41 86
252 41 88
253 41 92
254 41 93
255 48 100
256 48 102
257 48 104
258 48 106
259 48 109
260 48 115
261 48 12
262 48 122
263 48 14
264 48 16
265 48 18
266 48 20
267 48 22
268 48 25
269 48 35
270 48 37
271 48 39
272 48 41
273 48 43
274 48 45
275 48 47
276 48 49
277 48 51
278 48 53
279 48 56
280 48 58
281 48 59
282 48 60
283 48 67
284 48 69
285 48 72
286 48 74
287 48 76
288 48 78
289 48 80
290 48 96
291 48 98
292 51 101
293 51 105
294 51 109
295 51 112
296 51 127
297 51 13
298 51 17
299 51 21
300 51 25
301 51 28
302 51 32
303 51 36
304 51 40
305 51 44
306 51 48
307 51 52
308 51 56
309 51 68
310 51 72
311 51 75
312 51 79
313 51 8
314 51 85
315 51 91
316 51 97
317 55 11
318 55 34
319 55 57
320 55 66
321 55 73
322 55 82
323 55 95
324 56 108
325 56 11
326 56 34
327 56 66
328 56 73
329 56 82
330 56 95
331 57 108
332 57 11
333 57 111
334 57 125
335 57 26
336 57 34
337 57 61
338 57 66
339 57 73
340 57 82
341 57 95
342 58 5
343 58 82
344 61 109
345 61 112
346 61 8
347 61 85
348 61 91
349 63 115
350 64 122
351 64 83
352 64 85
353 64 87
354 64 89
355 64 91
356 64 93
357 71 100
358 71 103
359 71 105
360 71 107
361 71 109
362 71 111
363 71 113
364 71 115
365 71 117
366 71 124
367 71 13
368 71 15
369 71 17
370 71 19
371 71 21
372 71 23
373 71 25
374 71 27
375 71 29
376 71 31
377 71 34
378 71 43
379 71 45
380 71 48
381 71 50
382 71 52
383 71 54
384 71 57
385 71 59
386 71 62
387 71 64
388 71 67
389 71 69
390 71 71
391 71 73
392 71 76
393 71 78
394 71 80
395 71 82
396 71 85
397 71 87
398 71 89
399 71 91
400 71 93
401 71 95
402 71 97
403 74 100
404 74 104
405 74 108
406 74 11
407 74 112
408 74 116
409 74 14
410 74 18
411 74 22
412 74 26
413 74 30
414 74 34
415 74 38
416 74 44
417 74 49
418 74 53
419 74 58
420 74 63
421 74 68
422 74 7
423 74 72
424 74 77
425 74 81
426 74 85
427 74 88
428 74 92
429 74 96
430 78 102
431 78 12
432 78 35
433 78 42
434 78 47
435 78 56
436 78 61
437 78 66
438 78 75
439 78 86
440 79 102
441 79 12
442 79 35
443 79 42
444 79 47
445 79 56
446 79 61
447 79 66
448 79 75
449 79 86
450 79 99
451 80 102
452 80 12
453 80 35
454 80 42
455 80 47
456 80 5
457 80 56
458 80 61
459 80 66
460 80 75
461 80 86
462 80 99
463 81 35
464 81 8
465 84 100
466 84 11
467 84 38
468 87 124
469 87 36
470 87 37
471 87 39
472 87 40
473 94 100
474 94 102
475 94 104
476 94 106
477 94 109
478 94 11
479 94 110
480 94 111
481 94 112
482 94 114
483 94 118
484 94 120
485 94 13
486 94 15
487 94 17
488 94 20
489 94 22
490 94 25
491 94 27
492 94 29
493 94 31
494 94 59
495 94 6
496 94 61
497 94 63
498 94 65
499 94 68
500 94 72
501 94 73
502 94 74
503 94 82
504 97 101
505 97 105
506 97 109
507 97 119
508 97 12
509 97 123
510 97 125
511 97 16
512 97 21
513 97 25
514 97 28
515 97 32
516 97 36
517 97 42
518 97 48
519 97 54
520 97 60
521 97 64
522 97 68
523 97 70
524 101 10
525 101 117
526 101 19
527 101 26
528 101 33
529 101 58
530 101 71
531 101 99
532 102 10
533 102 117
534 102 19
535 102 26
536 102 31
537 102 33
538 102 58
539 102 67
540 102 80
541 102 99
542 103 10
543 103 117
544 103 122
545 103 19
546 103 26
547 103 31
548 103 33
549 103 58
550 103 67
551 103 75
552 103 80
553 103 99
554 104 33
555 107 123
556 107 125
557 107 32
558 107 36
559 107 42
560 107 48
561 107 54
562 107 68
563 107 70
564 109 6
565 110 114
566 110 34
567 110 36
568 110 38
569 110 40
570 110 42
571 110 44
572 110 46
573 110 48
574 110 50
575 110 52
576 110 53
577 110 55
578 110 56
579 117 101
580 117 103
581 117 105
582 117 106
583 117 109
584 117 110
585 117 113
586 117 115
587 117 116
588 117 118
589 117 120
590 117 13
591 117 15
592 117 39
593 117 41
594 117 43
595 117 45
596 117 48
597 117 49
598 117 50
599 117 52
600 117 55
601 117 57
602 117 60
603 117 62
604 117 65
605 117 67
606 117 69
607 117 72
608 117 73
609 117 74
610 117 77
611 117 83
612 117 87
613 117 95
614 117 97
615 117 99
616 120 100
617 120 106
618 120 110
619 120 113
620 120 125
621 120 18
622 120 25
623 120 33
624 120 40
625 120 44
626 120 53
627 120 56
628 120 61
629 120 65
630 120 68
631 120 77
632 120 8
633 120 81
634 120 83
635 120 87
636 120 92
637 120 96
638 123 103
639 123 21
640 123 27
641 123 35
642 124 103
643 124 106
644 124 110
645 124 21
646 124 27
647 124 35
648 124 38
649 124 54
650 124 59
651 124 66
652 124 94
653 125 104
654 125 108
655 125 112
656 125 21
657 125 27
658 125 35
659 125 38
660 125 52
661 125 54
662 125 59
663 125 66
664 125 76
665 125 82
666 125 86
667 125 94
668 126 103
669 126 112
670 126 120
671 126 123
672 126 17
673 126 21
674 126 28
675 126 36
676 126 38
677 126 52
678 126 54
679 126 59
680 126 66
681 126 76
682 126 79
683 126 82
684 126 86
685 126 9
686 126 94
687 127 21
688 127 5
689 127 89
690 130 105
691 130 109
692 130 113
693 130 18
694 130 53
695 130 77
696 130 8
697 130 83
698 130 87
699 130 92
700 132 116
701 132 117
702 132 118
703 132 48
704 132 72
705 133 120
706 133 22
707 133 23
708 133 25
709 133 26
710 133 27
711 133 30
712 133 31
713 133 33
714 133 34
715 133 35
716 133 49
717 133 73
718 140 10
719 140 100
720 140 102
721 140 104
722 140 106
723 140 108
724 140 111
725 140 113
726 140 116
727 140 118
728 140 126
729 140 53
730 140 55
731 143 101
732 143 105
733 143 109
734 143 112
735 143 117
736 143 121
737 143 123
738 143 18
739 143 24
740 143 30
741 143 36
742 143 42
743 143 48
744 143 54
745 143 61
746 143 69
747 143 74
748 143 82
749 143 90
750 143 98
751 146 57
752 146 63
753 146 70
754 146 76
755 146 84
756 146 92
757 147 110
758 147 115
759 147 15
760 147 52
761 147 57
762 147 63
763 147 70
764 147 76
765 147 84
766 147 92
767 147 99
768 148 108
769 148 110
770 148 115
771 148 15
772 148 52
773 148 57
774 148 63
775 148 70
776 148 76
777 148 84
778 148 92
779 148 99
780 149 108
781 149 110
782 149 115
783 149 120
784 149 15
785 149 52
786 149 57
787 149 64
788 149 70
789 149 77
790 149 85
791 149 93
792 149 99
793 150 15
794 150 57
795 150 70
796 153 109
797 153 121
798 153 123
799 153 18
800 153 24
801 153 30
802 153 36
803 153 42
804 153 48
805 155 126
806 156 10
807 156 16
808 156 18
809 156 20
810 156 22
811 156 24
812 156 26
813 156 28
814 156 30
815 156 32
816 156 34
817 156 36
818 156 38
819 156 40
820 156 42
821 156 44
822 156 46
823 156 47
824 156 49
825 156 50
826 156 58
827 156 59
828 156 61
829 156 63
830 156 67
831 156 68
832 156 72
833 156 74
834 156 76
835 156 80
836 156 82
837 156 84
838 156 87
839 156 88
840 156 90
841 156 92
842 156 96
843 156 97
844 163 100
845 163 102
846 163 105
847 163 108
848 163 11
849 163 110
850 163 111
851 163 114
852 163 116
853 163 118
854 163 12
855 163 124
856 163 126
857 163 13
858 163 16
859 163 17
860 163 19
861 163 21
862 163 24
863 163 25
864 163 26
865 163 29
866 163 31
867 163 34
868 163 35
869 163 36
870 163 40
871 163 41
872 163 42
873 163 45
874 163 47
875 163 50
876 163 52
877 163 56
878 163 59
879 163 69
880 163 71
881 163 74
882 163 90
883 163 92
884 163 95
885 163 97
886 166 101
887 166 105
888 166 107
889 166 111
890 166 117
891 166 30
892 166 46
893 166 51
894 166 57
895 166 59
896 166 6
897 166 64
898 166 70
899 166 74
900 166 80
901 166 88
902 166 90
903 166 92
904 166 96
905 169 108
906 169 76
907 169 82
908 170 108
909 170 111
910 170 115
911 170 28
912 170 44
913 170 49
914 170 61
915 170 68
916 170 76
917 170 82
918 170 94
919 170 99
920 171 104
921 171 109
922 171 113
923 171 115
924 171 28
925 171 44
926 171 49
927 171 56
928 171 58
929 171 61
930 171 68
931 171 73
932 171 76
933 171 82
934 171 89
935 171 94
936 171 99
937 172 104
938 172 108
939 172 115
940 172 12
941 172 120
942 172 21
943 172 28
944 172 44
945 172 49
946 172 5
947 172 56
948 172 58
949 172 61
950 172 68
951 172 73
952 172 76
953 172 83
954 172 89
955 172 94
956 172 99
957 173 61
958 173 76
959 176 105
960 176 107
961 176 110
962 176 114
963 176 57
964 176 59
965 176 6
966 176 64
967 176 74
968 176 90
969 176 92
970 178 17
971 178 18
972 178 19
973 178 25
974 178 34
975 178 35
976 178 36
977 178 40
978 178 41
979 178 42
980 179 13
981 179 21
982 179 26
983 179 62
984 179 64
985 179 65
986 179 66
987 179 77
988 179 78
989 179 80
990 179 82
991 179 86
992 179 87
993 186 100
994 186 102
995 186 105
996 186 107
997 186 11
998 186 125
999 186 25
1000 186 27
1001 186 30
1002 186 32
1003 186 35
1004 186 37
1005 186 40
1006 186 41
1007 186 42
1008 186 43
1009 186 44
1010 186 46
1011 186 68
1012 186 70
1013 186 73
1014 186 75
1015 186 78
1016 186 80
1017 186 83
1018 186 85
1019 186 87
1020 186 90
1021 186 92
1022 186 95
1023 186 97
1024 189 101
1025 189 105
1026 189 116
1027 189 12
1028 189 15
1029 189 18
1030 189 22
1031 189 25
1032 189 27
1033 189 31
1034 189 36
1035 189 54
1036 189 62
1037 189 69
1038 189 74
1039 189 78
1040 189 8
1041 189 80
1042 189 84
1043 189 88
1044 189 91
1045 189 96
1046 192 50
1047 192 56
1048 192 64
1049 193 113
1050 193 29
1051 193 34
1052 193 50
1053 193 56
1054 193 64
1055 193 67
1056 193 72
1057 193 82
1058 193 89
1059 193 94
1060 193 99
1061 194 106
1062 194 11
1063 194 113
1064 194 24
1065 194 29
1066 194 34
1067 194 50
1068 194 56
1069 194 64
1070 194 67
1071 194 72
1072 194 77
1073 194 82
1074 194 87
1075 194 89
1076 194 94
1077 194 99
1078 195 106
1079 195 11
1080 195 113
1081 195 13
1082 195 16
1083 195 24
1084 195 29
1085 195 34
1086 195 46
1087 195 50
1088 195 57
1089 195 65
1090 195 67
1091 195 72
1092 195 77
1093 195 82
1094 195 87
1095 195 89
1096 195 94
1097 195 99
1098 196 113
1099 196 5
1100 196 50
1101 199 116
1102 199 12
1103 199 25
1104 199 27
1105 199 78
1106 199 8
1107 199 80
1108 199 88
1109 200 107
1110 202 114
1111 202 116
1112 202 117
1113 202 118
1114 202 125
1115 202 40
1116 202 41
1117 202 43
1118 202 44
1119 202 51
1120 202 52
1121 202 54
1122 202 55
1123 202 56
1124 202 59
1125 202 60
1126 202 62
1127 202 63
1128 202 64
1129 209 100
1130 209 101
1131 209 106
1132 209 51
1133 209 53
1134 209 55
1135 209 6
1136 209 99
1137 212 124
1138 212 14
1139 212 22
1140 212 30
1141 212 38
1142 212 46
1143 212 66
1144 212 72
1145 212 80
1146 212 88
1147 212 94
1148 212 96
1149 215 10
1150 215 16
1151 215 24
1152 215 32
1153 215 40
1154 215 48
1155 215 51
1156 215 76
1157 215 82
1158 215 90
1159 216 10
1160 216 16
1161 216 24
1162 216 32
1163 216 40
1164 216 48
1165 216 51
1166 216 63
1167 216 76
1168 216 82
1169 216 90
1170 217 10
1171 217 104
1172 217 16
1173 217 24
1174 217 32
1175 217 40
1176 217 48
1177 217 52
1178 217 54
1179 217 63
1180 217 76
1181 217 82
1182 217 90
1183 218 10
1184 218 100
1185 218 104
1186 218 123
1187 218 17
1188 218 25
1189 218 33
1190 218 41
1191 218 49
1192 218 51
1193 218 54
1194 218 63
1195 218 76
1196 218 83
1197 218 91
1198 218 93
1199 219 10
1200 219 63
1201 219 76
1202 222 124
1203 222 53
1204 222 66
1205 222 72
1206 222 94
1207 222 96
1208 224 6
1209 225 101
1210 225 12
1211 225 14
1212 225 16
1213 225 20
1214 225 22
1215 225 24
1216 225 28
1217 225 30
1218 225 32
1219 225 36
1220 225 38
1221 225 40
1222 225 44
1223 225 46
1224 225 48
1225 225 64
1226 225 66
1227 225 68
1228 225 70
1229 225 72
1230 225 74
1231 225 77
1232 225 78
1233 225 80
1234 225 81
1235 225 82
1236 225 85
1237 225 86
1238 225 88
1239 225 89
1240 225 90
1241 232 106
1242 232 108
1243 232 11
1244 232 111
1245 232 112
1246 232 113
1247 232 12
1248 232 123
1249 232 125
1250 232 13
1251 232 16
1252 232 18
1253 232 21
1254 232 23
1255 232 26
1256 232 28
1257 232 30
1258 232 32
1259 232 49
1260 232 51
1261 232 54
1262 232 56
1263 232 67
1264 232 69
1265 232 72
1266 232 74
1267 232 77
1268 232 81
1269 232 83
1270 232 85
1271 232 88
1272 232 90
1273 232 93
1274 232 97
1275 232 98
1276 232 99
1277 235 107
1278 235 118
1279 235 17
1280 235 22
1281 235 27
1282 235 32
1283 235 35
1284 235 40
1285 235 48
1286 235 50
1287 235 52
1288 235 55
1289 235 61
1290 235 68
1291 235 73
1292 235 77
1293 235 79
1294 235 8
1295 235 81
1296 235 83
1297 235 85
1298 235 89
1299 235 93
1300 235 95
1301 238 36
1302 238 42
1303 239 105
1304 239 15
1305 239 20
1306 239 25
1307 239 30
1308 239 36
1309 239 42
1310 239 53
1311 239 58
1312 239 66
1313 239 71
1314 239 87
1315 239 96
1316 240 105
1317 240 15
1318 240 20
1319 240 25
1320 240 30
1321 240 36
1322 240 42
1323 240 49
1324 240 51
1325 240 53
1326 240 58
1327 240 66
1328 240 71
1329 240 76
1330 240 80
1331 240 87
1332 240 92
1333 241 100
1334 241 105
1335 241 119
1336 241 15
1337 241 20
1338 241 25
1339 241 30
1340 241 33
1341 241 36
1342 241 43
1343 241 49
1344 241 51
1345 241 53
1346 241 58
1347 241 66
1348 241 71
1349 241 76
1350 241 80
1351 241 87
1352 241 92
1353 242 115
1354 242 36
1355 242 5
1356 242 58
1357 245 118
1358 245 50
1359 245 52
1360 245 61
1361 245 77
1362 245 79
1363 245 8
1364 245 81
1365 245 83
1366 245 85
1367 245 93
1368 245 95
1369 247 11
1370 247 111
1371 247 112
1372 247 113
1373 248 12
1374 248 37
1375 248 38
1376 248 40
1377 248 42
1378 248 46
1379 248 47
1380 248 59
1381 248 61
1382 248 62
1383 248 63
1384 255 102
1385 255 103
1386 255 104
1387 255 111
1388 255 113
1389 255 115
1390 255 117
1391 255 123
1392 255 125
1393 255 18
1394 255 36
1395 255 37
1396 255 38
1397 255 41
1398 255 43
1399 255 45
1400 255 47
1401 255 67
1402 255 69
1403 255 71
1404 255 73
1405 255 78
1406 255 80
1407 255 82
1408 255 84
1409 255 87
1410 255 89
1411 255 91
1412 255 95
1413 255 97
1414 255 99
1415 258 10
1416 258 100
1417 258 112
1418 258 116
1419 258 14
1420 258 42
1421 258 46
1422 258 53
1423 258 61
1424 258 68
1425 258 7
1426 258 72
1427 258 79
1428 258 83
1429 258 87
1430 258 89
1431 258 91
1432 258 93
1433 258 95
1434 258 97
1435 261 49
1436 261 55
1437 261 63
1438 262 101
1439 262 110
1440 262 40
1441 262 49
1442 262 55
1443 262 63
1444 262 66
1445 262 77
1446 263 110
1447 263 16
1448 263 40
1449 263 49
1450 263 55
1451 263 63
1452 263 66
1453 263 77
1454 263 88
1455 263 94
1456 263 99
1457 264 105
1458 264 110
1459 264 119
1460 264 16
1461 264 40
1462 264 49
1463 264 5
1464 264 56
1465 264 64
1466 264 66
1467 264 77
1468 264 8
1469 264 88
1470 264 94
1471 264 99
1472 265 49
1473 268 100
1474 268 89
1475 268 91
1476 268 93
1477 268 95
1478 268 97
1479 270 36
1480 271 37
1481 271 50
1482 271 51
1483 271 53
1484 271 54
1485 271 55
1486 271 58
1487 271 59
1488 271 61
1489 271 62
1490 271 63
1491 278 100
1492 278 102
1493 278 109
1494 278 11
1495 278 110
1496 278 111
1497 278 112
1498 278 116
1499 278 118
1500 278 13
1501 278 14
1502 278 17
1503 278 19
1504 278 22
1505 278 25
1506 278 27
1507 278 29
1508 278 31
1509 278 38
1510 278 46
1511 278 49
1512 278 51
1513 278 53
1514 278 55
1515 278 58
1516 278 61
1517 278 62
1518 278 64
1519 278 66
1520 278 70
1521 278 79
1522 278 83
1523 278 84
1524 278 85
1525 278 86
1526 278 90
1527 278 92
1528 278 95
1529 278 97
1530 281 100
1531 281 122
1532 281 126
1533 281 14
1534 281 18
1535 281 22
1536 281 26
1537 281 30
1538 281 36
1539 281 47
1540 281 50
1541 281 54
1542 281 58
1543 281 60
1544 281 79
1545 281 8
1546 281 81
1547 281 96
1548 284 11
1549 285 11
1550 285 14
1551 285 16
1552 285 24
1553 285 48
1554 285 94
1555 286 101
1556 286 12
1557 286 16
1558 286 24
1559 286 37
1560 286 46
1561 286 48
1562 286 57
1563 286 69
1564 286 78
1565 286 94
1566 287 101
1567 287 11
1568 287 120
1569 287 16
1570 287 24
1571 287 37
1572 287 46
1573 287 48
1574 287 57
1575 287 66
1576 287 69
1577 287 78
1578 287 94
1579 288 33
1580 288 5
1581 291 13
1582 291 36
1583 291 47
1584 291 58
1585 291 60
1586 291 79
1587 291 8
1588 291 81
1589 292 102
1590 293 116
1591 293 118
1592 293 62
1593 293 63
1594 293 64
1595 293 90
1596 293 92
1597 294 109
1598 294 111
1599 294 112
1600 294 66
1601 294 83
1602 294 85
1603 294 86
1604 339 113
1605 339 127
1606 339 15
1607 339 29
1608 339 43
1609 339 57
1610 339 66
1611 339 71
1612 339 80
1613 339 85
1614 339 94
1615 339 99
EOF
